100 6292
524 262 917 1179 520 1179 650 780 1170 650 1048 1048 1179 1040 1040 520 524 130 262 1170 524 262 910 786 780 130 1170 393 1300 1170 262 1310 910 655 910 910 260 260 390 780 910 390 1170 1310 262 131 130 393 520 1300 390 262 655 1048 786 650 1040 1040 780 1310 917 260 786 1300 1300 130 390 1048 650 910 260 650 1179 393 1179 1048 1179 130 917 1300 780 393 262 910 131 650 130 1300 130 1170 655 786 260 393 131 520 393 780 262 1040 
560 280 980 1260 484 1260 605 726 1089 605 1120 1120 1260 968 968 484 560 121 280 1089 560 280 847 840 726 121 1089 420 1210 1089 280 1400 847 700 847 847 242 242 363 726 847 363 1089 1400 280 140 121 420 484 1210 363 280 700 1120 840 605 968 968 726 1400 980 242 840 1210 1210 121 363 1120 605 847 242 605 1260 420 1260 1120 1260 121 980 1210 726 420 280 847 140 605 121 1210 121 1089 700 840 242 420 140 484 420 726 280 968 
